1 0 2 4 11 12 13 14 19 20 21 22 23 24 25 26 27 28 29 30 31 33 34 35 36 
2 1 3 32 
3 5 
4 6 
5 7 9 15 17 
6 8 10 16 18 

1 33 34 35 36 
2 0 2 4 10 11 12 13 14 18 19 20 21 22 23 24 25 26 27 28 29 30 31 
3 1 3 32 
4 5 
5 6 8 16 
6 7 9 15 17 

1 33 34 35 36 
2 0 2 4 10 11 12 13 14 18 19 20 21 22 23 24 25 26 27 28 29 30 31 
3 1 3 32 
4 5 
5 6 8 16 
6 7 9 15 17 

1 33 34 35 36 
2 0 2 4 10 11 12 13 14 18 19 20 21 22 23 24 25 26 27 28 29 30 31 
3 1 3 32 
4 5 
5 6 8 16 
6 7 9 15 17 

1 0 11 12 13 14 19 21 23 26 27 
2 7 15 20 22 24 
3 17 25 28 
4 4 6 8 9 10 16 18 
5 1 3 5 
6 2 29 30 31 32 33 34 35 36 

1 2 29 30 31 32 33 34 35 36 
2 16 17 25 26 
3 0 1 3 6 8 9 10 12 14 19 20 28 
4 18 22 24 27 
5 21 23 
6 4 5 7 11 13 15 

